c SAT Generator for power-law distributed variable frequencies
c -g u -v 20 -c 91 -k 3 -p 2.750000 -b 3.200000 -f /home/schmidt/Devel/ni-kop-sat/data/ensemble/ruf20-91/ruf20-91-52 -u 1 -U 1 -s 4114866233
p cnf 20 91
-5 -13 -15 0
7 14 19 0
6 -14 -18 0
2 -14 -15 0
-2 -10 17 0
-11 13 18 0
2 8 12 0
-2 -10 -11 0
-8 -12 20 0
2 6 15 0
9 -11 -19 0
-12 14 -16 0
8 -13 15 0
-3 11 15 0
8 -17 20 0
1 12 16 0
-13 -14 -18 0
3 15 17 0
5 12 -20 0
-9 -15 -20 0
-8 14 15 0
-13 -15 16 0
-6 -8 14 0
7 -8 -15 0
-5 -8 -18 0
-9 11 20 0
5 6 -9 0
2 17 -20 0
-1 11 17 0
-5 -8 20 0
-7 14 16 0
9 -10 -18 0
2 -15 20 0
-2 4 -7 0
3 -12 19 0
-7 13 -14 0
5 -8 -18 0
8 -9 -11 0
12 16 -20 0
-1 9 -20 0
-1 10 -14 0
-4 11 18 0
-3 -8 -14 0
6 -8 -11 0
-10 12 -17 0
-3 9 -17 0
-4 15 -20 0
3 -10 -14 0
6 9 15 0
-3 7 20 0
-6 -11 12 0
12 -13 -14 0
1 -16 -20 0
-6 -10 13 0
-7 -12 18 0
6 10 16 0
4 -9 -13 0
-11 -17 18 0
4 -10 -12 0
2 5 20 0
-1 4 11 0
4 -13 17 0
-2 -4 7 0
-6 10 12 0
3 9 12 0
14 -15 17 0
-8 -11 18 0
-1 -11 15 0
10 -15 -20 0
-15 -16 20 0
-4 -8 -18 0
11 -13 -16 0
1 -12 -14 0
-2 -9 -13 0
-6 -16 20 0
-3 -10 -16 0
-1 -9 -13 0
-8 -10 -17 0
9 12 16 0
10 11 17 0
-4 9 -11 0
-12 -17 -18 0
-5 6 -7 0
13 -15 -16 0
3 -10 -15 0
-1 -8 13 0
11 13 -16 0
-3 -12 19 0
16 -18 20 0
1 -5 10 0
-3 12 17 0
